c Mesh Graph
c 24 Rows, 26 columns, capacities in range [0, 600]
p max 626 1848
n 1 s
n 626 t
a 1 25 1800
a 1 24 1800
a 1 23 1800
a 1 22 1800
a 1 21 1800
a 1 20 1800
a 1 19 1800
a 1 18 1800
a 1 17 1800
a 1 16 1800
a 1 15 1800
a 1 14 1800
a 1 13 1800
a 1 12 1800
a 1 11 1800
a 1 10 1800
a 1 9 1800
a 1 8 1800
a 1 7 1800
a 1 6 1800
a 1 5 1800
a 1 4 1800
a 1 3 1800
a 1 2 1800
a 2 27 178
a 2 26 287
a 2 49 584
a 3 28 536
a 3 27 594
a 3 26 116
a 4 29 250
a 4 28 493
a 4 27 587
a 5 30 428
a 5 29 363
a 5 28 422
a 6 31 564
a 6 30 260
a 6 29 291
a 7 32 427
a 7 31 541
a 7 30 527
a 8 33 12
a 8 32 137
a 8 31 173
a 9 34 430
a 9 33 568
a 9 32 369
a 10 35 63
a 10 34 531
a 10 33 183
a 11 36 536
a 11 35 68
a 11 34 524
a 12 37 223
a 12 36 403
a 12 35 330
a 13 38 568
a 13 37 270
a 13 36 259
a 14 39 212
a 14 38 257
a 14 37 194
a 15 40 574
a 15 39 430
a 15 38 443
a 16 41 585
a 16 40 120
a 16 39 22
a 17 42 525
a 17 41 399
a 17 40 338
a 18 43 414
a 18 42 571
a 18 41 516
a 19 44 381
a 19 43 92
a 19 42 527
a 20 45 63
a 20 44 274
a 20 43 357
a 21 46 482
a 21 45 197
a 21 44 171
a 22 47 285
a 22 46 526
a 22 45 106
a 23 48 306
a 23 47 537
a 23 46 328
a 24 49 314
a 24 48 130
a 24 47 47
a 25 26 496
a 25 49 325
a 25 48 258
a 26 51 15
a 26 50 346
a 26 73 583
a 27 52 165
a 27 51 435
a 27 50 568
a 28 53 488
a 28 52 351
a 28 51 244
a 29 54 579
a 29 53 277
a 29 52 409
a 30 55 4
a 30 54 385
a 30 53 189
a 31 56 200
a 31 55 555
a 31 54 252
a 32 57 477
a 32 56 61
a 32 55 133
a 33 58 413
a 33 57 140
a 33 56 169
a 34 59 295
a 34 58 187
a 34 57 227
a 35 60 371
a 35 59 196
a 35 58 540
a 36 61 468
a 36 60 179
a 36 59 435
a 37 62 303
a 37 61 498
a 37 60 202
a 38 63 53
a 38 62 493
a 38 61 118
a 39 64 81
a 39 63 302
a 39 62 357
a 40 65 466
a 40 64 242
a 40 63 87
a 41 66 420
a 41 65 245
a 41 64 90
a 42 67 232
a 42 66 130
a 42 65 41
a 43 68 372
a 43 67 298
a 43 66 518
a 44 69 310
a 44 68 276
a 44 67 82
a 45 70 257
a 45 69 568
a 45 68 128
a 46 71 187
a 46 70 154
a 46 69 498
a 47 72 84
a 47 71 107
a 47 70 366
a 48 73 329
a 48 72 225
a 48 71 420
a 49 50 30
a 49 73 333
a 49 72 472
a 50 75 271
a 50 74 420
a 50 97 304
a 51 76 516
a 51 75 509
a 51 74 169
a 52 77 397
a 52 76 550
a 52 75 341
a 53 78 446
a 53 77 219
a 53 76 324
a 54 79 122
a 54 78 52
a 54 77 447
a 55 80 89
a 55 79 180
a 55 78 156
a 56 81 242
a 56 80 429
a 56 79 165
a 57 82 101
a 57 81 194
a 57 80 351
a 58 83 325
a 58 82 365
a 58 81 435
a 59 84 57
a 59 83 588
a 59 82 515
a 60 85 228
a 60 84 292
a 60 83 544
a 61 86 137
a 61 85 460
a 61 84 566
a 62 87 438
a 62 86 552
a 62 85 233
a 63 88 408
a 63 87 276
a 63 86 29
a 64 89 459
a 64 88 122
a 64 87 475
a 65 90 38
a 65 89 30
a 65 88 596
a 66 91 219
a 66 90 194
a 66 89 436
a 67 92 412
a 67 91 544
a 67 90 429
a 68 93 177
a 68 92 130
a 68 91 529
a 69 94 164
a 69 93 44
a 69 92 5
a 70 95 207
a 70 94 339
a 70 93 414
a 71 96 419
a 71 95 305
a 71 94 41
a 72 97 370
a 72 96 289
a 72 95 529
a 73 74 397
a 73 97 318
a 73 96 118
a 74 99 271
a 74 98 544
a 74 121 525
a 75 100 300
a 75 99 291
a 75 98 384
a 76 101 245
a 76 100 126
a 76 99 173
a 77 102 540
a 77 101 306
a 77 100 391
a 78 103 70
a 78 102 587
a 78 101 555
a 79 104 465
a 79 103 343
a 79 102 483
a 80 105 556
a 80 104 508
a 80 103 398
a 81 106 12
a 81 105 549
a 81 104 5
a 82 107 300
a 82 106 229
a 82 105 423
a 83 108 369
a 83 107 347
a 83 106 544
a 84 109 312
a 84 108 23
a 84 107 341
a 85 110 2
a 85 109 406
a 85 108 11
a 86 111 479
a 86 110 331
a 86 109 62
a 87 112 537
a 87 111 121
a 87 110 306
a 88 113 523
a 88 112 427
a 88 111 245
a 89 114 17
a 89 113 309
a 89 112 66
a 90 115 525
a 90 114 459
a 90 113 283
a 91 116 225
a 91 115 463
a 91 114 238
a 92 117 453
a 92 116 37
a 92 115 1
a 93 118 551
a 93 117 580
a 93 116 300
a 94 119 574
a 94 118 72
a 94 117 69
a 95 120 131
a 95 119 82
a 95 118 132
a 96 121 461
a 96 120 495
a 96 119 134
a 97 98 582
a 97 121 200
a 97 120 364
a 98 123 160
a 98 122 197
a 98 145 300
a 99 124 469
a 99 123 14
a 99 122 574
a 100 125 327
a 100 124 296
a 100 123 591
a 101 126 541
a 101 125 285
a 101 124 267
a 102 127 577
a 102 126 285
a 102 125 491
a 103 128 308
a 103 127 337
a 103 126 343
a 104 129 380
a 104 128 157
a 104 127 46
a 105 130 213
a 105 129 288
a 105 128 19
a 106 131 460
a 106 130 173
a 106 129 149
a 107 132 411
a 107 131 537
a 107 130 10
a 108 133 7
a 108 132 588
a 108 131 343
a 109 134 373
a 109 133 314
a 109 132 502
a 110 135 420
a 110 134 56
a 110 133 122
a 111 136 105
a 111 135 322
a 111 134 200
a 112 137 141
a 112 136 212
a 112 135 140
a 113 138 229
a 113 137 306
a 113 136 468
a 114 139 385
a 114 138 351
a 114 137 528
a 115 140 425
a 115 139 121
a 115 138 59
a 116 141 597
a 116 140 270
a 116 139 23
a 117 142 285
a 117 141 31
a 117 140 482
a 118 143 273
a 118 142 373
a 118 141 293
a 119 144 586
a 119 143 26
a 119 142 51
a 120 145 41
a 120 144 500
a 120 143 423
a 121 122 114
a 121 145 99
a 121 144 243
a 122 147 325
a 122 146 591
a 122 169 99
a 123 148 382
a 123 147 210
a 123 146 591
a 124 149 133
a 124 148 137
a 124 147 220
a 125 150 5
a 125 149 195
a 125 148 356
a 126 151 274
a 126 150 570
a 126 149 180
a 127 152 56
a 127 151 451
a 127 150 177
a 128 153 180
a 128 152 143
a 128 151 461
a 129 154 206
a 129 153 194
a 129 152 485
a 130 155 105
a 130 154 368
a 130 153 222
a 131 156 555
a 131 155 362
a 131 154 14
a 132 157 545
a 132 156 460
a 132 155 127
a 133 158 507
a 133 157 203
a 133 156 203
a 134 159 43
a 134 158 422
a 134 157 585
a 135 160 590
a 135 159 529
a 135 158 469
a 136 161 559
a 136 160 109
a 136 159 473
a 137 162 409
a 137 161 37
a 137 160 499
a 138 163 304
a 138 162 249
a 138 161 554
a 139 164 249
a 139 163 134
a 139 162 134
a 140 165 368
a 140 164 355
a 140 163 91
a 141 166 130
a 141 165 369
a 141 164 547
a 142 167 589
a 142 166 247
a 142 165 501
a 143 168 191
a 143 167 450
a 143 166 198
a 144 169 364
a 144 168 434
a 144 167 104
a 145 146 293
a 145 169 54
a 145 168 498
a 146 171 153
a 146 170 526
a 146 193 487
a 147 172 189
a 147 171 176
a 147 170 197
a 148 173 437
a 148 172 130
a 148 171 358
a 149 174 322
a 149 173 15
a 149 172 61
a 150 175 429
a 150 174 105
a 150 173 61
a 151 176 549
a 151 175 51
a 151 174 428
a 152 177 195
a 152 176 303
a 152 175 557
a 153 178 44
a 153 177 500
a 153 176 298
a 154 179 229
a 154 178 3
a 154 177 240
a 155 180 282
a 155 179 501
a 155 178 4
a 156 181 560
a 156 180 139
a 156 179 48
a 157 182 135
a 157 181 336
a 157 180 552
a 158 183 16
a 158 182 93
a 158 181 140
a 159 184 30
a 159 183 505
a 159 182 328
a 160 185 486
a 160 184 565
a 160 183 50
a 161 186 536
a 161 185 144
a 161 184 230
a 162 187 239
a 162 186 101
a 162 185 178
a 163 188 490
a 163 187 150
a 163 186 372
a 164 189 493
a 164 188 389
a 164 187 168
a 165 190 145
a 165 189 144
a 165 188 396
a 166 191 283
a 166 190 191
a 166 189 430
a 167 192 370
a 167 191 142
a 167 190 141
a 168 193 462
a 168 192 33
a 168 191 27
a 169 170 118
a 169 193 361
a 169 192 43
a 170 195 82
a 170 194 162
a 170 217 424
a 171 196 226
a 171 195 391
a 171 194 310
a 172 197 78
a 172 196 568
a 172 195 597
a 173 198 227
a 173 197 91
a 173 196 235
a 174 199 15
a 174 198 258
a 174 197 125
a 175 200 159
a 175 199 406
a 175 198 369
a 176 201 101
a 176 200 587
a 176 199 513
a 177 202 595
a 177 201 127
a 177 200 547
a 178 203 379
a 178 202 153
a 178 201 317
a 179 204 491
a 179 203 547
a 179 202 530
a 180 205 52
a 180 204 371
a 180 203 48
a 181 206 194
a 181 205 432
a 181 204 481
a 182 207 513
a 182 206 428
a 182 205 458
a 183 208 356
a 183 207 415
a 183 206 287
a 184 209 13
a 184 208 291
a 184 207 513
a 185 210 170
a 185 209 411
a 185 208 280
a 186 211 156
a 186 210 75
a 186 209 190
a 187 212 34
a 187 211 21
a 187 210 42
a 188 213 539
a 188 212 89
a 188 211 388
a 189 214 485
a 189 213 371
a 189 212 167
a 190 215 7
a 190 214 418
a 190 213 57
a 191 216 438
a 191 215 50
a 191 214 461
a 192 217 18
a 192 216 260
a 192 215 406
a 193 194 184
a 193 217 546
a 193 216 319
a 194 219 474
a 194 218 459
a 194 241 74
a 195 220 284
a 195 219 490
a 195 218 438
a 196 221 358
a 196 220 79
a 196 219 8
a 197 222 130
a 197 221 472
a 197 220 515
a 198 223 219
a 198 222 260
a 198 221 301
a 199 224 589
a 199 223 426
a 199 222 239
a 200 225 158
a 200 224 234
a 200 223 475
a 201 226 559
a 201 225 94
a 201 224 482
a 202 227 218
a 202 226 500
a 202 225 71
a 203 228 164
a 203 227 570
a 203 226 440
a 204 229 374
a 204 228 395
a 204 227 23
a 205 230 263
a 205 229 232
a 205 228 248
a 206 231 93
a 206 230 591
a 206 229 283
a 207 232 316
a 207 231 258
a 207 230 392
a 208 233 575
a 208 232 558
a 208 231 522
a 209 234 152
a 209 233 548
a 209 232 492
a 210 235 138
a 210 234 422
a 210 233 232
a 211 236 231
a 211 235 55
a 211 234 141
a 212 237 482
a 212 236 126
a 212 235 99
a 213 238 203
a 213 237 317
a 213 236 317
a 214 239 597
a 214 238 340
a 214 237 232
a 215 240 581
a 215 239 339
a 215 238 5
a 216 241 571
a 216 240 22
a 216 239 19
a 217 218 580
a 217 241 413
a 217 240 463
a 218 243 537
a 218 242 86
a 218 265 178
a 219 244 484
a 219 243 577
a 219 242 505
a 220 245 58
a 220 244 560
a 220 243 408
a 221 246 112
a 221 245 100
a 221 244 545
a 222 247 237
a 222 246 551
a 222 245 528
a 223 248 306
a 223 247 19
a 223 246 161
a 224 249 45
a 224 248 250
a 224 247 364
a 225 250 135
a 225 249 6
a 225 248 112
a 226 251 156
a 226 250 376
a 226 249 92
a 227 252 569
a 227 251 590
a 227 250 415
a 228 253 406
a 228 252 519
a 228 251 394
a 229 254 383
a 229 253 423
a 229 252 83
a 230 255 94
a 230 254 231
a 230 253 318
a 231 256 194
a 231 255 527
a 231 254 375
a 232 257 144
a 232 256 454
a 232 255 487
a 233 258 514
a 233 257 15
a 233 256 475
a 234 259 163
a 234 258 378
a 234 257 180
a 235 260 520
a 235 259 489
a 235 258 576
a 236 261 295
a 236 260 333
a 236 259 111
a 237 262 36
a 237 261 147
a 237 260 18
a 238 263 554
a 238 262 292
a 238 261 338
a 239 264 129
a 239 263 374
a 239 262 144
a 240 265 111
a 240 264 92
a 240 263 526
a 241 242 37
a 241 265 218
a 241 264 19
a 242 267 491
a 242 266 456
a 242 289 564
a 243 268 505
a 243 267 331
a 243 266 459
a 244 269 34
a 244 268 262
a 244 267 372
a 245 270 274
a 245 269 590
a 245 268 286
a 246 271 6
a 246 270 452
a 246 269 205
a 247 272 504
a 247 271 469
a 247 270 251
a 248 273 196
a 248 272 207
a 248 271 286
a 249 274 321
a 249 273 350
a 249 272 240
a 250 275 164
a 250 274 27
a 250 273 368
a 251 276 382
a 251 275 397
a 251 274 478
a 252 277 237
a 252 276 361
a 252 275 266
a 253 278 319
a 253 277 571
a 253 276 156
a 254 279 333
a 254 278 343
a 254 277 412
a 255 280 322
a 255 279 380
a 255 278 197
a 256 281 173
a 256 280 585
a 256 279 471
a 257 282 41
a 257 281 235
a 257 280 228
a 258 283 599
a 258 282 273
a 258 281 484
a 259 284 348
a 259 283 264
a 259 282 431
a 260 285 374
a 260 284 31
a 260 283 151
a 261 286 523
a 261 285 260
a 261 284 315
a 262 287 283
a 262 286 525
a 262 285 448
a 263 288 5
a 263 287 433
a 263 286 436
a 264 289 99
a 264 288 244
a 264 287 155
a 265 266 479
a 265 289 441
a 265 288 487
a 266 291 463
a 266 290 63
a 266 313 560
a 267 292 449
a 267 291 42
a 267 290 484
a 268 293 473
a 268 292 525
a 268 291 524
a 269 294 136
a 269 293 355
a 269 292 523
a 270 295 166
a 270 294 258
a 270 293 22
a 271 296 177
a 271 295 572
a 271 294 148
a 272 297 102
a 272 296 419
a 272 295 70
a 273 298 534
a 273 297 254
a 273 296 104
a 274 299 529
a 274 298 160
a 274 297 108
a 275 300 121
a 275 299 398
a 275 298 207
a 276 301 535
a 276 300 109
a 276 299 85
a 277 302 577
a 277 301 592
a 277 300 299
a 278 303 253
a 278 302 516
a 278 301 499
a 279 304 360
a 279 303 190
a 279 302 372
a 280 305 17
a 280 304 211
a 280 303 507
a 281 306 340
a 281 305 110
a 281 304 425
a 282 307 510
a 282 306 179
a 282 305 1
a 283 308 515
a 283 307 282
a 283 306 454
a 284 309 427
a 284 308 390
a 284 307 139
a 285 310 224
a 285 309 348
a 285 308 68
a 286 311 333
a 286 310 432
a 286 309 188
a 287 312 76
a 287 311 482
a 287 310 123
a 288 313 591
a 288 312 380
a 288 311 451
a 289 290 532
a 289 313 151
a 289 312 455
a 290 315 495
a 290 314 58
a 290 337 214
a 291 316 4
a 291 315 482
a 291 314 582
a 292 317 183
a 292 316 234
a 292 315 321
a 293 318 216
a 293 317 88
a 293 316 582
a 294 319 5
a 294 318 226
a 294 317 497
a 295 320 352
a 295 319 293
a 295 318 323
a 296 321 535
a 296 320 233
a 296 319 298
a 297 322 416
a 297 321 107
a 297 320 382
a 298 323 196
a 298 322 309
a 298 321 458
a 299 324 98
a 299 323 163
a 299 322 200
a 300 325 155
a 300 324 377
a 300 323 484
a 301 326 388
a 301 325 110
a 301 324 378
a 302 327 22
a 302 326 183
a 302 325 133
a 303 328 461
a 303 327 164
a 303 326 67
a 304 329 86
a 304 328 412
a 304 327 283
a 305 330 131
a 305 329 486
a 305 328 287
a 306 331 115
a 306 330 184
a 306 329 391
a 307 332 221
a 307 331 317
a 307 330 77
a 308 333 529
a 308 332 526
a 308 331 493
a 309 334 91
a 309 333 126
a 309 332 440
a 310 335 219
a 310 334 361
a 310 333 537
a 311 336 329
a 311 335 138
a 311 334 444
a 312 337 511
a 312 336 22
a 312 335 583
a 313 314 426
a 313 337 89
a 313 336 356
a 314 339 238
a 314 338 371
a 314 361 216
a 315 340 123
a 315 339 409
a 315 338 54
a 316 341 58
a 316 340 551
a 316 339 184
a 317 342 127
a 317 341 28
a 317 340 298
a 318 343 52
a 318 342 272
a 318 341 270
a 319 344 529
a 319 343 111
a 319 342 550
a 320 345 289
a 320 344 399
a 320 343 40
a 321 346 178
a 321 345 594
a 321 344 11
a 322 347 200
a 322 346 577
a 322 345 91
a 323 348 288
a 323 347 332
a 323 346 353
a 324 349 58
a 324 348 300
a 324 347 178
a 325 350 218
a 325 349 353
a 325 348 167
a 326 351 169
a 326 350 536
a 326 349 42
a 327 352 196
a 327 351 585
a 327 350 99
a 328 353 467
a 328 352 6
a 328 351 577
a 329 354 329
a 329 353 555
a 329 352 29
a 330 355 479
a 330 354 594
a 330 353 309
a 331 356 473
a 331 355 356
a 331 354 598
a 332 357 201
a 332 356 446
a 332 355 175
a 333 358 284
a 333 357 198
a 333 356 126
a 334 359 583
a 334 358 128
a 334 357 413
a 335 360 335
a 335 359 294
a 335 358 222
a 336 361 22
a 336 360 335
a 336 359 440
a 337 338 358
a 337 361 186
a 337 360 360
a 338 363 363
a 338 362 162
a 338 385 555
a 339 364 317
a 339 363 542
a 339 362 173
a 340 365 63
a 340 364 251
a 340 363 253
a 341 366 418
a 341 365 600
a 341 364 483
a 342 367 16
a 342 366 174
a 342 365 355
a 343 368 565
a 343 367 52
a 343 366 307
a 344 369 92
a 344 368 464
a 344 367 591
a 345 370 138
a 345 369 438
a 345 368 573
a 346 371 472
a 346 370 29
a 346 369 60
a 347 372 57
a 347 371 388
a 347 370 81
a 348 373 571
a 348 372 342
a 348 371 191
a 349 374 512
a 349 373 266
a 349 372 553
a 350 375 162
a 350 374 518
a 350 373 270
a 351 376 513
a 351 375 152
a 351 374 84
a 352 377 439
a 352 376 507
a 352 375 501
a 353 378 490
a 353 377 565
a 353 376 268
a 354 379 105
a 354 378 555
a 354 377 233
a 355 380 542
a 355 379 280
a 355 378 76
a 356 381 570
a 356 380 339
a 356 379 213
a 357 382 357
a 357 381 171
a 357 380 437
a 358 383 450
a 358 382 361
a 358 381 245
a 359 384 115
a 359 383 66
a 359 382 215
a 360 385 384
a 360 384 87
a 360 383 127
a 361 362 536
a 361 385 170
a 361 384 40
a 362 387 194
a 362 386 422
a 362 409 553
a 363 388 510
a 363 387 90
a 363 386 391
a 364 389 465
a 364 388 74
a 364 387 32
a 365 390 496
a 365 389 149
a 365 388 136
a 366 391 234
a 366 390 114
a 366 389 78
a 367 392 156
a 367 391 550
a 367 390 399
a 368 393 269
a 368 392 194
a 368 391 156
a 369 394 334
a 369 393 161
a 369 392 357
a 370 395 172
a 370 394 287
a 370 393 224
a 371 396 341
a 371 395 78
a 371 394 359
a 372 397 162
a 372 396 382
a 372 395 46
a 373 398 251
a 373 397 524
a 373 396 591
a 374 399 76
a 374 398 555
a 374 397 501
a 375 400 225
a 375 399 443
a 375 398 365
a 376 401 90
a 376 400 520
a 376 399 260
a 377 402 39
a 377 401 70
a 377 400 245
a 378 403 584
a 378 402 577
a 378 401 152
a 379 404 144
a 379 403 334
a 379 402 420
a 380 405 182
a 380 404 557
a 380 403 505
a 381 406 12
a 381 405 67
a 381 404 76
a 382 407 393
a 382 406 113
a 382 405 168
a 383 408 69
a 383 407 103
a 383 406 330
a 384 409 375
a 384 408 3
a 384 407 332
a 385 386 217
a 385 409 119
a 385 408 408
a 386 411 488
a 386 410 378
a 386 433 384
a 387 412 558
a 387 411 374
a 387 410 473
a 388 413 534
a 388 412 526
a 388 411 263
a 389 414 19
a 389 413 97
a 389 412 598
a 390 415 327
a 390 414 354
a 390 413 142
a 391 416 394
a 391 415 181
a 391 414 75
a 392 417 506
a 392 416 349
a 392 415 86
a 393 418 360
a 393 417 430
a 393 416 231
a 394 419 363
a 394 418 161
a 394 417 299
a 395 420 481
a 395 419 320
a 395 418 425
a 396 421 11
a 396 420 103
a 396 419 42
a 397 422 384
a 397 421 327
a 397 420 281
a 398 423 309
a 398 422 341
a 398 421 590
a 399 424 158
a 399 423 339
a 399 422 524
a 400 425 511
a 400 424 232
a 400 423 294
a 401 426 91
a 401 425 306
a 401 424 21
a 402 427 439
a 402 426 392
a 402 425 414
a 403 428 268
a 403 427 22
a 403 426 71
a 404 429 181
a 404 428 72
a 404 427 430
a 405 430 500
a 405 429 496
a 405 428 544
a 406 431 355
a 406 430 289
a 406 429 425
a 407 432 433
a 407 431 570
a 407 430 187
a 408 433 174
a 408 432 311
a 408 431 570
a 409 410 264
a 409 433 234
a 409 432 31
a 410 435 495
a 410 434 280
a 410 457 188
a 411 436 552
a 411 435 300
a 411 434 450
a 412 437 343
a 412 436 465
a 412 435 540
a 413 438 116
a 413 437 287
a 413 436 131
a 414 439 187
a 414 438 116
a 414 437 150
a 415 440 435
a 415 439 412
a 415 438 82
a 416 441 123
a 416 440 588
a 416 439 334
a 417 442 444
a 417 441 174
a 417 440 88
a 418 443 155
a 418 442 143
a 418 441 520
a 419 444 140
a 419 443 525
a 419 442 445
a 420 445 419
a 420 444 464
a 420 443 460
a 421 446 470
a 421 445 313
a 421 444 354
a 422 447 334
a 422 446 5
a 422 445 306
a 423 448 20
a 423 447 135
a 423 446 400
a 424 449 488
a 424 448 36
a 424 447 516
a 425 450 51
a 425 449 470
a 425 448 454
a 426 451 38
a 426 450 203
a 426 449 288
a 427 452 211
a 427 451 290
a 427 450 163
a 428 453 105
a 428 452 561
a 428 451 6
a 429 454 30
a 429 453 158
a 429 452 512
a 430 455 493
a 430 454 17
a 430 453 404
a 431 456 206
a 431 455 123
a 431 454 222
a 432 457 562
a 432 456 180
a 432 455 444
a 433 434 448
a 433 457 579
a 433 456 529
a 434 459 483
a 434 458 246
a 434 481 301
a 435 460 352
a 435 459 100
a 435 458 188
a 436 461 554
a 436 460 387
a 436 459 590
a 437 462 595
a 437 461 549
a 437 460 27
a 438 463 308
a 438 462 307
a 438 461 237
a 439 464 465
a 439 463 218
a 439 462 93
a 440 465 481
a 440 464 21
a 440 463 122
a 441 466 355
a 441 465 595
a 441 464 367
a 442 467 534
a 442 466 438
a 442 465 324
a 443 468 513
a 443 467 118
a 443 466 285
a 444 469 510
a 444 468 418
a 444 467 132
a 445 470 9
a 445 469 357
a 445 468 366
a 446 471 396
a 446 470 346
a 446 469 470
a 447 472 96
a 447 471 372
a 447 470 423
a 448 473 402
a 448 472 360
a 448 471 170
a 449 474 372
a 449 473 453
a 449 472 477
a 450 475 144
a 450 474 326
a 450 473 341
a 451 476 490
a 451 475 92
a 451 474 573
a 452 477 79
a 452 476 167
a 452 475 328
a 453 478 197
a 453 477 451
a 453 476 13
a 454 479 14
a 454 478 334
a 454 477 525
a 455 480 371
a 455 479 100
a 455 478 187
a 456 481 116
a 456 480 569
a 456 479 195
a 457 458 240
a 457 481 143
a 457 480 342
a 458 483 599
a 458 482 64
a 458 505 438
a 459 484 203
a 459 483 540
a 459 482 591
a 460 485 529
a 460 484 32
a 460 483 114
a 461 486 372
a 461 485 5
a 461 484 258
a 462 487 539
a 462 486 84
a 462 485 147
a 463 488 141
a 463 487 96
a 463 486 226
a 464 489 227
a 464 488 373
a 464 487 422
a 465 490 326
a 465 489 559
a 465 488 435
a 466 491 46
a 466 490 153
a 466 489 557
a 467 492 540
a 467 491 247
a 467 490 73
a 468 493 4
a 468 492 84
a 468 491 312
a 469 494 543
a 469 493 426
a 469 492 62
a 470 495 575
a 470 494 540
a 470 493 17
a 471 496 331
a 471 495 197
a 471 494 545
a 472 497 414
a 472 496 95
a 472 495 68
a 473 498 261
a 473 497 320
a 473 496 358
a 474 499 33
a 474 498 493
a 474 497 251
a 475 500 591
a 475 499 80
a 475 498 477
a 476 501 496
a 476 500 36
a 476 499 554
a 477 502 142
a 477 501 108
a 477 500 599
a 478 503 577
a 478 502 171
a 478 501 538
a 479 504 402
a 479 503 585
a 479 502 541
a 480 505 93
a 480 504 1
a 480 503 484
a 481 482 41
a 481 505 297
a 481 504 210
a 482 507 136
a 482 506 364
a 482 529 540
a 483 508 207
a 483 507 474
a 483 506 105
a 484 509 452
a 484 508 124
a 484 507 365
a 485 510 531
a 485 509 352
a 485 508 150
a 486 511 566
a 486 510 305
a 486 509 140
a 487 512 426
a 487 511 303
a 487 510 387
a 488 513 348
a 488 512 592
a 488 511 280
a 489 514 332
a 489 513 285
a 489 512 8
a 490 515 332
a 490 514 520
a 490 513 162
a 491 516 28
a 491 515 129
a 491 514 254
a 492 517 144
a 492 516 420
a 492 515 295
a 493 518 369
a 493 517 524
a 493 516 182
a 494 519 244
a 494 518 40
a 494 517 388
a 495 520 595
a 495 519 189
a 495 518 239
a 496 521 299
a 496 520 81
a 496 519 521
a 497 522 353
a 497 521 219
a 497 520 487
a 498 523 96
a 498 522 499
a 498 521 64
a 499 524 380
a 499 523 506
a 499 522 411
a 500 525 299
a 500 524 67
a 500 523 143
a 501 526 179
a 501 525 73
a 501 524 226
a 502 527 598
a 502 526 367
a 502 525 254
a 503 528 273
a 503 527 548
a 503 526 149
a 504 529 313
a 504 528 87
a 504 527 517
a 505 506 501
a 505 529 78
a 505 528 160
a 506 531 333
a 506 530 598
a 506 553 154
a 507 532 552
a 507 531 236
a 507 530 204
a 508 533 450
a 508 532 299
a 508 531 308
a 509 534 107
a 509 533 462
a 509 532 155
a 510 535 526
a 510 534 4
a 510 533 535
a 511 536 598
a 511 535 229
a 511 534 585
a 512 537 116
a 512 536 234
a 512 535 164
a 513 538 415
a 513 537 382
a 513 536 161
a 514 539 501
a 514 538 298
a 514 537 186
a 515 540 330
a 515 539 209
a 515 538 498
a 516 541 80
a 516 540 114
a 516 539 150
a 517 542 315
a 517 541 317
a 517 540 235
a 518 543 366
a 518 542 376
a 518 541 186
a 519 544 227
a 519 543 531
a 519 542 387
a 520 545 230
a 520 544 217
a 520 543 493
a 521 546 210
a 521 545 553
a 521 544 170
a 522 547 196
a 522 546 116
a 522 545 167
a 523 548 577
a 523 547 29
a 523 546 34
a 524 549 27
a 524 548 214
a 524 547 448
a 525 550 587
a 525 549 463
a 525 548 101
a 526 551 101
a 526 550 364
a 526 549 430
a 527 552 417
a 527 551 598
a 527 550 509
a 528 553 545
a 528 552 183
a 528 551 576
a 529 530 227
a 529 553 321
a 529 552 341
a 530 555 195
a 530 554 566
a 530 577 319
a 531 556 147
a 531 555 135
a 531 554 300
a 532 557 263
a 532 556 54
a 532 555 509
a 533 558 43
a 533 557 87
a 533 556 104
a 534 559 8
a 534 558 535
a 534 557 433
a 535 560 470
a 535 559 35
a 535 558 211
a 536 561 585
a 536 560 216
a 536 559 197
a 537 562 583
a 537 561 125
a 537 560 297
a 538 563 517
a 538 562 452
a 538 561 466
a 539 564 238
a 539 563 544
a 539 562 162
a 540 565 203
a 540 564 262
a 540 563 388
a 541 566 89
a 541 565 561
a 541 564 582
a 542 567 142
a 542 566 221
a 542 565 480
a 543 568 229
a 543 567 325
a 543 566 494
a 544 569 163
a 544 568 509
a 544 567 536
a 545 570 197
a 545 569 471
a 545 568 543
a 546 571 412
a 546 570 67
a 546 569 164
a 547 572 288
a 547 571 116
a 547 570 501
a 548 573 491
a 548 572 333
a 548 571 235
a 549 574 434
a 549 573 494
a 549 572 151
a 550 575 95
a 550 574 281
a 550 573 140
a 551 576 55
a 551 575 14
a 551 574 94
a 552 577 276
a 552 576 245
a 552 575 183
a 553 554 352
a 553 577 139
a 553 576 324
a 554 579 12
a 554 578 74
a 554 601 552
a 555 580 482
a 555 579 369
a 555 578 466
a 556 581 300
a 556 580 284
a 556 579 414
a 557 582 415
a 557 581 536
a 557 580 578
a 558 583 147
a 558 582 170
a 558 581 265
a 559 584 392
a 559 583 73
a 559 582 508
a 560 585 424
a 560 584 212
a 560 583 341
a 561 586 437
a 561 585 58
a 561 584 188
a 562 587 82
a 562 586 240
a 562 585 594
a 563 588 572
a 563 587 315
a 563 586 21
a 564 589 397
a 564 588 19
a 564 587 372
a 565 590 165
a 565 589 484
a 565 588 135
a 566 591 201
a 566 590 298
a 566 589 368
a 567 592 136
a 567 591 275
a 567 590 68
a 568 593 58
a 568 592 291
a 568 591 234
a 569 594 130
a 569 593 550
a 569 592 133
a 570 595 93
a 570 594 291
a 570 593 524
a 571 596 150
a 571 595 230
a 571 594 348
a 572 597 141
a 572 596 223
a 572 595 536
a 573 598 456
a 573 597 244
a 573 596 369
a 574 599 226
a 574 598 367
a 574 597 340
a 575 600 461
a 575 599 254
a 575 598 137
a 576 601 158
a 576 600 21
a 576 599 53
a 577 578 184
a 577 601 88
a 577 600 5
a 578 603 227
a 578 602 322
a 578 625 141
a 579 604 528
a 579 603 206
a 579 602 198
a 580 605 570
a 580 604 129
a 580 603 79
a 581 606 199
a 581 605 228
a 581 604 171
a 582 607 422
a 582 606 164
a 582 605 321
a 583 608 417
a 583 607 284
a 583 606 461
a 584 609 183
a 584 608 24
a 584 607 68
a 585 610 436
a 585 609 512
a 585 608 293
a 586 611 209
a 586 610 564
a 586 609 154
a 587 612 296
a 587 611 569
a 587 610 63
a 588 613 369
a 588 612 461
a 588 611 599
a 589 614 574
a 589 613 410
a 589 612 577
a 590 615 455
a 590 614 488
a 590 613 504
a 591 616 82
a 591 615 58
a 591 614 474
a 592 617 597
a 592 616 130
a 592 615 424
a 593 618 281
a 593 617 343
a 593 616 245
a 594 619 56
a 594 618 410
a 594 617 413
a 595 620 567
a 595 619 455
a 595 618 348
a 596 621 282
a 596 620 360
a 596 619 535
a 597 622 2
a 597 621 174
a 597 620 143
a 598 623 214
a 598 622 172
a 598 621 439
a 599 624 23
a 599 623 500
a 599 622 559
a 600 625 262
a 600 624 156
a 600 623 285
a 601 602 72
a 601 625 381
a 601 624 491
a 602 626 1800
a 603 626 1800
a 604 626 1800
a 605 626 1800
a 606 626 1800
a 607 626 1800
a 608 626 1800
a 609 626 1800
a 610 626 1800
a 611 626 1800
a 612 626 1800
a 613 626 1800
a 614 626 1800
a 615 626 1800
a 616 626 1800
a 617 626 1800
a 618 626 1800
a 619 626 1800
a 620 626 1800
a 621 626 1800
a 622 626 1800
a 623 626 1800
a 624 626 1800
a 625 626 1800
